c This file is generated by v2cnfMtr
c Generated on Tue Feb 23 16:01:59 2016
p cnf 512 1311
4 16 0
-4 -16 0
5 17 0
-5 -17 0
1 60 0
-1 -60 0
-1 -16 20 0
1 -20 0
16 -20 0
-60 -16 21 0
60 -21 0
16 -21 0
-2 -4 22 0
2 -22 0
4 -22 0
-3 -4 23 0
3 -23 0
4 -23 0
-20 -17 29 0
20 -29 0
17 -29 0
-21 -5 27 0
21 -27 0
5 -27 0
-22 -17 25 0
22 -25 0
17 -25 0
-23 -5 24 0
23 -24 0
5 -24 0
24 25 -26 0
-24 26 0
-25 26 0
26 27 -28 0
-26 28 0
-27 28 0
29 28 -61 0
-29 61 0
-28 61 0
6 30 0
-6 -30 0
7 31 0
-7 -31 0
1 60 0
-1 -60 0
-1 -30 34 0
1 -34 0
30 -34 0
-60 -30 35 0
60 -35 0
30 -35 0
-2 -6 36 0
2 -36 0
6 -36 0
-3 -6 37 0
3 -37 0
6 -37 0
-34 -31 43 0
34 -43 0
31 -43 0
-35 -7 41 0
35 -41 0
7 -41 0
-36 -31 39 0
36 -39 0
31 -39 0
-37 -7 38 0
37 -38 0
7 -38 0
38 39 -40 0
-38 40 0
-39 40 0
40 41 -42 0
-40 42 0
-41 42 0
43 42 -61 0
-43 61 0
-42 61 0
8 44 0
-8 -44 0
9 45 0
-9 -45 0
1 60 0
-1 -60 0
-1 -44 48 0
1 -48 0
44 -48 0
-60 -44 49 0
60 -49 0
44 -49 0
-2 -8 50 0
2 -50 0
8 -50 0
-3 -8 51 0
3 -51 0
8 -51 0
-48 -45 57 0
48 -57 0
45 -57 0
-49 -9 55 0
49 -55 0
9 -55 0
-50 -45 53 0
50 -53 0
45 -53 0
-51 -9 52 0
51 -52 0
9 -52 0
52 53 -54 0
-52 54 0
-53 54 0
54 55 -56 0
-54 56 0
-55 56 0
57 56 -61 0
-57 61 0
-56 61 0
10 58 0
-10 -58 0
11 59 0
-11 -59 0
1 60 0
-1 -60 0
-1 -58 62 0
1 -62 0
58 -62 0
-60 -58 63 0
60 -63 0
58 -63 0
-2 -10 64 0
2 -64 0
10 -64 0
-3 -10 65 0
3 -65 0
10 -65 0
-62 -59 71 0
62 -71 0
59 -71 0
-63 -11 69 0
63 -69 0
11 -69 0
-64 -59 67 0
64 -67 0
59 -67 0
-65 -11 66 0
65 -66 0
11 -66 0
66 67 -68 0
-66 68 0
-67 68 0
68 69 -70 0
-68 70 0
-69 70 0
71 70 -61 0
-71 61 0
-70 61 0
12 72 0
-12 -72 0
13 73 0
-13 -73 0
75 74 0
-75 -74 0
-75 -72 76 0
75 -76 0
72 -76 0
-74 -72 77 0
74 -77 0
72 -77 0
-2 -12 78 0
2 -78 0
12 -78 0
-3 -12 79 0
3 -79 0
12 -79 0
-76 -73 85 0
76 -85 0
73 -85 0
-77 -13 83 0
77 -83 0
13 -83 0
-78 -73 81 0
78 -81 0
73 -81 0
-79 -13 80 0
79 -80 0
13 -80 0
80 81 -82 0
-80 82 0
-81 82 0
82 83 -84 0
-82 84 0
-83 84 0
85 84 -14 0
-85 14 0
-84 14 0
-61 -61 -61 -61 -75 0
61 75 0
61 75 0
61 75 0
61 75 0
c The second circuit:
89 101 0
-89 -101 0
90 102 0
-90 -102 0
86 145 0
-86 -145 0
-86 -101 105 0
86 -105 0
101 -105 0
-145 -101 106 0
145 -106 0
101 -106 0
-87 -89 107 0
87 -107 0
89 -107 0
-88 -89 108 0
88 -108 0
89 -108 0
-105 -102 114 0
105 -114 0
102 -114 0
-106 -90 112 0
106 -112 0
90 -112 0
-107 -102 110 0
107 -110 0
102 -110 0
-108 -90 109 0
108 -109 0
90 -109 0
109 110 -111 0
-109 111 0
-110 111 0
111 112 -113 0
-111 113 0
-112 113 0
114 113 -146 0
-114 146 0
-113 146 0
91 115 0
-91 -115 0
92 116 0
-92 -116 0
86 145 0
-86 -145 0
-86 -115 119 0
86 -119 0
115 -119 0
-145 -115 120 0
145 -120 0
115 -120 0
-87 -91 121 0
87 -121 0
91 -121 0
-88 -91 122 0
88 -122 0
91 -122 0
-119 -116 128 0
119 -128 0
116 -128 0
-120 -92 126 0
120 -126 0
92 -126 0
-121 -116 124 0
121 -124 0
116 -124 0
-122 -92 123 0
122 -123 0
92 -123 0
123 124 -125 0
-123 125 0
-124 125 0
125 126 -127 0
-125 127 0
-126 127 0
128 127 -146 0
-128 146 0
-127 146 0
93 129 0
-93 -129 0
94 130 0
-94 -130 0
86 145 0
-86 -145 0
-86 -129 133 0
86 -133 0
129 -133 0
-145 -129 134 0
145 -134 0
129 -134 0
-87 -93 135 0
87 -135 0
93 -135 0
-88 -93 136 0
88 -136 0
93 -136 0
-133 -130 142 0
133 -142 0
130 -142 0
-134 -94 140 0
134 -140 0
94 -140 0
-135 -130 138 0
135 -138 0
130 -138 0
-136 -94 137 0
136 -137 0
94 -137 0
137 138 -139 0
-137 139 0
-138 139 0
139 140 -141 0
-139 141 0
-140 141 0
142 141 -146 0
-142 146 0
-141 146 0
95 143 0
-95 -143 0
96 144 0
-96 -144 0
86 145 0
-86 -145 0
-86 -143 147 0
86 -147 0
143 -147 0
-145 -143 148 0
145 -148 0
143 -148 0
-87 -95 149 0
87 -149 0
95 -149 0
-88 -95 150 0
88 -150 0
95 -150 0
-147 -144 156 0
147 -156 0
144 -156 0
-148 -96 154 0
148 -154 0
96 -154 0
-149 -144 152 0
149 -152 0
144 -152 0
-150 -96 151 0
150 -151 0
96 -151 0
151 152 -153 0
-151 153 0
-152 153 0
153 154 -155 0
-153 155 0
-154 155 0
156 155 -146 0
-156 146 0
-155 146 0
97 157 0
-97 -157 0
98 158 0
-98 -158 0
160 159 0
-160 -159 0
-160 -157 161 0
160 -161 0
157 -161 0
-159 -157 162 0
159 -162 0
157 -162 0
-87 -97 163 0
87 -163 0
97 -163 0
-88 -97 164 0
88 -164 0
97 -164 0
-161 -158 170 0
161 -170 0
158 -170 0
-162 -98 168 0
162 -168 0
98 -168 0
-163 -158 166 0
163 -166 0
158 -166 0
-164 -98 165 0
164 -165 0
98 -165 0
165 166 -167 0
-165 167 0
-166 167 0
167 168 -169 0
-167 169 0
-168 169 0
170 169 -99 0
-170 99 0
-169 99 0
-146 -146 -146 -146 -160 0
146 160 0
146 160 0
146 160 0
146 160 0
2 0
-3 0
c Force PIs of 2 ckts to be the same:
1 -86 0
-1 86 0
2 -87 0
-2 87 0
3 -88 0
-3 88 0
c XOR outputs of 2 ckts:
-14 -99 -171 0
14 99 -171 0
14 -99 171 0
-14 99 171 0
c The last OR gate of the miter:
171 -172 0
-171 172 0
172 0
c New ckt:
176 188 0
-176 -188 0
177 189 0
-177 -189 0
173 232 0
-173 -232 0
-173 -188 192 0
173 -192 0
188 -192 0
-232 -188 193 0
232 -193 0
188 -193 0
-174 -176 194 0
174 -194 0
176 -194 0
-175 -176 195 0
175 -195 0
176 -195 0
-192 -189 201 0
192 -201 0
189 -201 0
-193 -177 199 0
193 -199 0
177 -199 0
-194 -189 197 0
194 -197 0
189 -197 0
-195 -177 196 0
195 -196 0
177 -196 0
196 197 -198 0
-196 198 0
-197 198 0
198 199 -200 0
-198 200 0
-199 200 0
201 200 -233 0
-201 233 0
-200 233 0
178 202 0
-178 -202 0
179 203 0
-179 -203 0
173 232 0
-173 -232 0
-173 -202 206 0
173 -206 0
202 -206 0
-232 -202 207 0
232 -207 0
202 -207 0
-174 -178 208 0
174 -208 0
178 -208 0
-175 -178 209 0
175 -209 0
178 -209 0
-206 -203 215 0
206 -215 0
203 -215 0
-207 -179 213 0
207 -213 0
179 -213 0
-208 -203 211 0
208 -211 0
203 -211 0
-209 -179 210 0
209 -210 0
179 -210 0
210 211 -212 0
-210 212 0
-211 212 0
212 213 -214 0
-212 214 0
-213 214 0
215 214 -233 0
-215 233 0
-214 233 0
180 216 0
-180 -216 0
181 217 0
-181 -217 0
173 232 0
-173 -232 0
-173 -216 220 0
173 -220 0
216 -220 0
-232 -216 221 0
232 -221 0
216 -221 0
-174 -180 222 0
174 -222 0
180 -222 0
-175 -180 223 0
175 -223 0
180 -223 0
-220 -217 229 0
220 -229 0
217 -229 0
-221 -181 227 0
221 -227 0
181 -227 0
-222 -217 225 0
222 -225 0
217 -225 0
-223 -181 224 0
223 -224 0
181 -224 0
224 225 -226 0
-224 226 0
-225 226 0
226 227 -228 0
-226 228 0
-227 228 0
229 228 -233 0
-229 233 0
-228 233 0
182 230 0
-182 -230 0
183 231 0
-183 -231 0
173 232 0
-173 -232 0
-173 -230 234 0
173 -234 0
230 -234 0
-232 -230 235 0
232 -235 0
230 -235 0
-174 -182 236 0
174 -236 0
182 -236 0
-175 -182 237 0
175 -237 0
182 -237 0
-234 -231 243 0
234 -243 0
231 -243 0
-235 -183 241 0
235 -241 0
183 -241 0
-236 -231 239 0
236 -239 0
231 -239 0
-237 -183 238 0
237 -238 0
183 -238 0
238 239 -240 0
-238 240 0
-239 240 0
240 241 -242 0
-240 242 0
-241 242 0
243 242 -233 0
-243 233 0
-242 233 0
184 244 0
-184 -244 0
185 245 0
-185 -245 0
247 246 0
-247 -246 0
-247 -244 248 0
247 -248 0
244 -248 0
-246 -244 249 0
246 -249 0
244 -249 0
-174 -184 250 0
174 -250 0
184 -250 0
-175 -184 251 0
175 -251 0
184 -251 0
-248 -245 257 0
248 -257 0
245 -257 0
-249 -185 255 0
249 -255 0
185 -255 0
-250 -245 253 0
250 -253 0
245 -253 0
-251 -185 252 0
251 -252 0
185 -252 0
252 253 -254 0
-252 254 0
-253 254 0
254 255 -256 0
-254 256 0
-255 256 0
257 256 -186 0
-257 186 0
-256 186 0
-233 -233 -233 -233 -247 0
233 247 0
233 247 0
233 247 0
233 247 0
4 -176 0
-4 176 0
5 -177 0
-5 177 0
6 -178 0
-6 178 0
7 -179 0
-7 179 0
8 -180 0
-8 180 0
9 -181 0
-9 181 0
10 -182 0
-10 182 0
11 -183 0
-11 183 0
12 -184 0
-12 184 0
13 -185 0
-13 185 0
-173 0
174 0
-175 0
-186 0
c New ckt:
261 273 0
-261 -273 0
262 274 0
-262 -274 0
258 317 0
-258 -317 0
-258 -273 277 0
258 -277 0
273 -277 0
-317 -273 278 0
317 -278 0
273 -278 0
-259 -261 279 0
259 -279 0
261 -279 0
-260 -261 280 0
260 -280 0
261 -280 0
-277 -274 286 0
277 -286 0
274 -286 0
-278 -262 284 0
278 -284 0
262 -284 0
-279 -274 282 0
279 -282 0
274 -282 0
-280 -262 281 0
280 -281 0
262 -281 0
281 282 -283 0
-281 283 0
-282 283 0
283 284 -285 0
-283 285 0
-284 285 0
286 285 -318 0
-286 318 0
-285 318 0
263 287 0
-263 -287 0
264 288 0
-264 -288 0
258 317 0
-258 -317 0
-258 -287 291 0
258 -291 0
287 -291 0
-317 -287 292 0
317 -292 0
287 -292 0
-259 -263 293 0
259 -293 0
263 -293 0
-260 -263 294 0
260 -294 0
263 -294 0
-291 -288 300 0
291 -300 0
288 -300 0
-292 -264 298 0
292 -298 0
264 -298 0
-293 -288 296 0
293 -296 0
288 -296 0
-294 -264 295 0
294 -295 0
264 -295 0
295 296 -297 0
-295 297 0
-296 297 0
297 298 -299 0
-297 299 0
-298 299 0
300 299 -318 0
-300 318 0
-299 318 0
265 301 0
-265 -301 0
266 302 0
-266 -302 0
258 317 0
-258 -317 0
-258 -301 305 0
258 -305 0
301 -305 0
-317 -301 306 0
317 -306 0
301 -306 0
-259 -265 307 0
259 -307 0
265 -307 0
-260 -265 308 0
260 -308 0
265 -308 0
-305 -302 314 0
305 -314 0
302 -314 0
-306 -266 312 0
306 -312 0
266 -312 0
-307 -302 310 0
307 -310 0
302 -310 0
-308 -266 309 0
308 -309 0
266 -309 0
309 310 -311 0
-309 311 0
-310 311 0
311 312 -313 0
-311 313 0
-312 313 0
314 313 -318 0
-314 318 0
-313 318 0
267 315 0
-267 -315 0
268 316 0
-268 -316 0
258 317 0
-258 -317 0
-258 -315 319 0
258 -319 0
315 -319 0
-317 -315 320 0
317 -320 0
315 -320 0
-259 -267 321 0
259 -321 0
267 -321 0
-260 -267 322 0
260 -322 0
267 -322 0
-319 -316 328 0
319 -328 0
316 -328 0
-320 -268 326 0
320 -326 0
268 -326 0
-321 -316 324 0
321 -324 0
316 -324 0
-322 -268 323 0
322 -323 0
268 -323 0
323 324 -325 0
-323 325 0
-324 325 0
325 326 -327 0
-325 327 0
-326 327 0
328 327 -318 0
-328 318 0
-327 318 0
269 329 0
-269 -329 0
270 330 0
-270 -330 0
332 331 0
-332 -331 0
-332 -329 333 0
332 -333 0
329 -333 0
-331 -329 334 0
331 -334 0
329 -334 0
-259 -269 335 0
259 -335 0
269 -335 0
-260 -269 336 0
260 -336 0
269 -336 0
-333 -330 342 0
333 -342 0
330 -342 0
-334 -270 340 0
334 -340 0
270 -340 0
-335 -330 338 0
335 -338 0
330 -338 0
-336 -270 337 0
336 -337 0
270 -337 0
337 338 -339 0
-337 339 0
-338 339 0
339 340 -341 0
-339 341 0
-340 341 0
342 341 -271 0
-342 271 0
-341 271 0
-318 -318 -318 -318 -332 0
318 332 0
318 332 0
318 332 0
318 332 0
89 -261 0
-89 261 0
90 -262 0
-90 262 0
91 -263 0
-91 263 0
92 -264 0
-92 264 0
93 -265 0
-93 265 0
94 -266 0
-94 266 0
95 -267 0
-95 267 0
96 -268 0
-96 268 0
97 -269 0
-97 269 0
98 -270 0
-98 270 0
-258 0
259 0
-260 0
-271 0
c New ckt:
346 358 0
-346 -358 0
347 359 0
-347 -359 0
343 402 0
-343 -402 0
-343 -358 362 0
343 -362 0
358 -362 0
-402 -358 363 0
402 -363 0
358 -363 0
-344 -346 364 0
344 -364 0
346 -364 0
-345 -346 365 0
345 -365 0
346 -365 0
-362 -359 371 0
362 -371 0
359 -371 0
-363 -347 369 0
363 -369 0
347 -369 0
-364 -359 367 0
364 -367 0
359 -367 0
-365 -347 366 0
365 -366 0
347 -366 0
366 367 -368 0
-366 368 0
-367 368 0
368 369 -370 0
-368 370 0
-369 370 0
371 370 -403 0
-371 403 0
-370 403 0
348 372 0
-348 -372 0
349 373 0
-349 -373 0
343 402 0
-343 -402 0
-343 -372 376 0
343 -376 0
372 -376 0
-402 -372 377 0
402 -377 0
372 -377 0
-344 -348 378 0
344 -378 0
348 -378 0
-345 -348 379 0
345 -379 0
348 -379 0
-376 -373 385 0
376 -385 0
373 -385 0
-377 -349 383 0
377 -383 0
349 -383 0
-378 -373 381 0
378 -381 0
373 -381 0
-379 -349 380 0
379 -380 0
349 -380 0
380 381 -382 0
-380 382 0
-381 382 0
382 383 -384 0
-382 384 0
-383 384 0
385 384 -403 0
-385 403 0
-384 403 0
350 386 0
-350 -386 0
351 387 0
-351 -387 0
343 402 0
-343 -402 0
-343 -386 390 0
343 -390 0
386 -390 0
-402 -386 391 0
402 -391 0
386 -391 0
-344 -350 392 0
344 -392 0
350 -392 0
-345 -350 393 0
345 -393 0
350 -393 0
-390 -387 399 0
390 -399 0
387 -399 0
-391 -351 397 0
391 -397 0
351 -397 0
-392 -387 395 0
392 -395 0
387 -395 0
-393 -351 394 0
393 -394 0
351 -394 0
394 395 -396 0
-394 396 0
-395 396 0
396 397 -398 0
-396 398 0
-397 398 0
399 398 -403 0
-399 403 0
-398 403 0
352 400 0
-352 -400 0
353 401 0
-353 -401 0
343 402 0
-343 -402 0
-343 -400 404 0
343 -404 0
400 -404 0
-402 -400 405 0
402 -405 0
400 -405 0
-344 -352 406 0
344 -406 0
352 -406 0
-345 -352 407 0
345 -407 0
352 -407 0
-404 -401 413 0
404 -413 0
401 -413 0
-405 -353 411 0
405 -411 0
353 -411 0
-406 -401 409 0
406 -409 0
401 -409 0
-407 -353 408 0
407 -408 0
353 -408 0
408 409 -410 0
-408 410 0
-409 410 0
410 411 -412 0
-410 412 0
-411 412 0
413 412 -403 0
-413 403 0
-412 403 0
354 414 0
-354 -414 0
355 415 0
-355 -415 0
417 416 0
-417 -416 0
-417 -414 418 0
417 -418 0
414 -418 0
-416 -414 419 0
416 -419 0
414 -419 0
-344 -354 420 0
344 -420 0
354 -420 0
-345 -354 421 0
345 -421 0
354 -421 0
-418 -415 427 0
418 -427 0
415 -427 0
-419 -355 425 0
419 -425 0
355 -425 0
-420 -415 423 0
420 -423 0
415 -423 0
-421 -355 422 0
421 -422 0
355 -422 0
422 423 -424 0
-422 424 0
-423 424 0
424 425 -426 0
-424 426 0
-425 426 0
427 426 -356 0
-427 356 0
-426 356 0
-403 -403 -403 -403 -417 0
403 417 0
403 417 0
403 417 0
403 417 0
4 -346 0
-4 346 0
5 -347 0
-5 347 0
6 -348 0
-6 348 0
7 -349 0
-7 349 0
8 -350 0
-8 350 0
9 -351 0
-9 351 0
10 -352 0
-10 352 0
11 -353 0
-11 353 0
12 -354 0
-12 354 0
13 -355 0
-13 355 0
343 0
344 0
-345 0
356 0
c New ckt:
431 443 0
-431 -443 0
432 444 0
-432 -444 0
428 487 0
-428 -487 0
-428 -443 447 0
428 -447 0
443 -447 0
-487 -443 448 0
487 -448 0
443 -448 0
-429 -431 449 0
429 -449 0
431 -449 0
-430 -431 450 0
430 -450 0
431 -450 0
-447 -444 456 0
447 -456 0
444 -456 0
-448 -432 454 0
448 -454 0
432 -454 0
-449 -444 452 0
449 -452 0
444 -452 0
-450 -432 451 0
450 -451 0
432 -451 0
451 452 -453 0
-451 453 0
-452 453 0
453 454 -455 0
-453 455 0
-454 455 0
456 455 -488 0
-456 488 0
-455 488 0
433 457 0
-433 -457 0
434 458 0
-434 -458 0
428 487 0
-428 -487 0
-428 -457 461 0
428 -461 0
457 -461 0
-487 -457 462 0
487 -462 0
457 -462 0
-429 -433 463 0
429 -463 0
433 -463 0
-430 -433 464 0
430 -464 0
433 -464 0
-461 -458 470 0
461 -470 0
458 -470 0
-462 -434 468 0
462 -468 0
434 -468 0
-463 -458 466 0
463 -466 0
458 -466 0
-464 -434 465 0
464 -465 0
434 -465 0
465 466 -467 0
-465 467 0
-466 467 0
467 468 -469 0
-467 469 0
-468 469 0
470 469 -488 0
-470 488 0
-469 488 0
435 471 0
-435 -471 0
436 472 0
-436 -472 0
428 487 0
-428 -487 0
-428 -471 475 0
428 -475 0
471 -475 0
-487 -471 476 0
487 -476 0
471 -476 0
-429 -435 477 0
429 -477 0
435 -477 0
-430 -435 478 0
430 -478 0
435 -478 0
-475 -472 484 0
475 -484 0
472 -484 0
-476 -436 482 0
476 -482 0
436 -482 0
-477 -472 480 0
477 -480 0
472 -480 0
-478 -436 479 0
478 -479 0
436 -479 0
479 480 -481 0
-479 481 0
-480 481 0
481 482 -483 0
-481 483 0
-482 483 0
484 483 -488 0
-484 488 0
-483 488 0
437 485 0
-437 -485 0
438 486 0
-438 -486 0
428 487 0
-428 -487 0
-428 -485 489 0
428 -489 0
485 -489 0
-487 -485 490 0
487 -490 0
485 -490 0
-429 -437 491 0
429 -491 0
437 -491 0
-430 -437 492 0
430 -492 0
437 -492 0
-489 -486 498 0
489 -498 0
486 -498 0
-490 -438 496 0
490 -496 0
438 -496 0
-491 -486 494 0
491 -494 0
486 -494 0
-492 -438 493 0
492 -493 0
438 -493 0
493 494 -495 0
-493 495 0
-494 495 0
495 496 -497 0
-495 497 0
-496 497 0
498 497 -488 0
-498 488 0
-497 488 0
439 499 0
-439 -499 0
440 500 0
-440 -500 0
502 501 0
-502 -501 0
-502 -499 503 0
502 -503 0
499 -503 0
-501 -499 504 0
501 -504 0
499 -504 0
-429 -439 505 0
429 -505 0
439 -505 0
-430 -439 506 0
430 -506 0
439 -506 0
-503 -500 512 0
503 -512 0
500 -512 0
-504 -440 510 0
504 -510 0
440 -510 0
-505 -500 508 0
505 -508 0
500 -508 0
-506 -440 507 0
506 -507 0
440 -507 0
507 508 -509 0
-507 509 0
-508 509 0
509 510 -511 0
-509 511 0
-510 511 0
512 511 -441 0
-512 441 0
-511 441 0
-488 -488 -488 -488 -502 0
488 502 0
488 502 0
488 502 0
488 502 0
89 -431 0
-89 431 0
90 -432 0
-90 432 0
91 -433 0
-91 433 0
92 -434 0
-92 434 0
93 -435 0
-93 435 0
94 -436 0
-94 436 0
95 -437 0
-95 437 0
96 -438 0
-96 438 0
97 -439 0
-97 439 0
98 -440 0
-98 440 0
428 0
429 0
-430 0
441 0
